1 -1 -2 0
1 1 -3 0
1 -4 5 0
1 -4 3 0
1 6 2 0
1 2 7 0
1 2 1 0
1 8 9 0
1 8 7 0
1 10 -11 0
1 10 -6 0
1 3 -12 0
1 3 -13 0
1 -3 -14 0
1 7 -8 0
1 -9 2 0
1 -15 -16 0
1 -15 -17 0
1 15 18 0
1 19 -17 0
1 19 20 0
1 -20 -21 0
1 20 -22 0
1 20 23 0
1 -20 6 0
1 24 25 0
1 24 21 0
1 24 26 0
1 -24 -20 0
1 24 6 0
1 -17 -27 0
1 17 -15 0
1 17 -7 0
1 -17 -6 0
1 27 9 0
1 27 17 0
1 27 28 0
1 27 15 0
1 27 29 0
1 30 21 0
1 -30 16 0
1 30 -31 0
1 -21 -12 0
1 21 -31 0
1 -26 24 0
1 26 -18 0
1 26 31 0
1 -25 -32 0
1 25 -18 0
1 16 21 0
1 -18 -19 0
1 18 33 0
1 -18 22 0
1 18 26 0
1 -18 -15 0
1 -18 34 0
1 35 26 0
1 35 -18 0
1 35 36 0
1 37 38 0
1 5 39 0
1 -5 38 0
1 -5 37 0
1 40 41 0
1 40 -42 0
1 -43 14 0
1 43 -44 0
1 -38 45 0
1 38 37 0
1 -46 -5 0
1 -42 39 0
1 42 -5 0
1 47 10 0
1 47 -7 0
1 -13 -9 0
1 45 -41 0
1 45 -48 0
1 45 15 0
1 -49 19 0
1 -49 -50 0
1 49 -48 0
1 41 -11 0
1 -41 -45 0
1 -41 47 0
1 -51 -49 0
1 51 52 0
1 -51 45 0
1 -51 -40 0
1 -53 -54 0
1 -53 -55 0
1 44 -53 0
1 44 45 0
1 44 56 0
1 -11 -12 0
1 11 50 0
1 11 -2 0
1 -11 17 0
1 -12 -21 0
1 12 48 0
1 -12 -17 0
1 -12 57 0
1 28 -50 0
1 -32 48 0
1 32 -28 0
1 -48 12 0
1 -48 -58 0
1 -57 12 0
1 -57 -33 0
1 57 -28 0
1 -57 -11 0
1 57 59 0
1 -50 32 0
1 -50 28 0
1 50 11 0
1 -60 -61 0
1 -60 59 0
1 22 -48 0
1 22 62 0
1 22 -18 0
1 29 54 0
1 29 24 0
1 29 -22 0
1 29 62 0
1 29 17 0
1 -33 63 0
1 -33 -58 0
1 33 64 0
1 58 -63 0
1 58 65 0
1 62 -32 0
1 62 -66 0
1 -62 -29 0
1 63 66 0
1 -63 22 0
1 -63 -62 0
1 -63 8 0
1 -65 -66 0
1 65 -67 0
1 -65 59 0
1 68 -63 0
1 -68 16 0
1 68 69 0
1 -68 -23 0
1 -68 -18 0
1 -36 35 0
1 36 -59 0
1 70 23 0
1 70 -34 0
1 71 -72 0
1 -71 -73 0
1 71 -74 0
1 -71 75 0
1 -71 62 0
1 71 -34 0
1 -71 67 0
1 -23 73 0
1 23 36 0
1 -73 -76 0
1 73 77 0
1 -69 78 0
1 72 33 0
1 72 -69 0
1 72 -79 0
1 72 58 0
1 80 -23 0
1 77 -73 0
1 -77 -80 0
1 76 81 0
1 76 -82 0
1 -76 -23 0
1 83 -80 0
1 83 -77 0
1 -75 -16 0
1 -75 -70 0
1 -75 -82 0
1 75 77 0
1 -75 -71 0
1 34 76 0
1 -34 -70 0
1 -34 -82 0
1 -74 35 0
1 74 80 0
1 52 50 0
1 52 -60 0
1 -54 -84 0
1 54 44 0
1 61 85 0
1 86 -61 0
1 -86 -56 0
1 87 38 0
1 -87 88 0
1 87 -52 0
1 87 -59 0
1 87 -86 0
1 89 -54 0
1 -89 -90 0
1 -89 59 0
1 91 54 0
1 88 85 0
1 88 -50 0
1 -88 48 0
1 88 56 0
1 88 -92 0
1 59 -87 0
1 59 -48 0
1 59 92 0
1 -90 93 0
1 -90 89 0
1 -90 -92 0
1 -90 -67 0
1 -67 -92 0
1 92 66 0
1 92 -88 0
1 -92 61 0
1 -92 79 0
1 55 -88 0
1 -55 86 0
1 -56 44 0
1 66 -62 0
1 79 -69 0
1 79 77 0
1 79 94 0
1 81 -95 0
1 81 93 0
1 81 69 0
1 78 -95 0
1 78 -92 0
1 -78 -94 0
1 93 -66 0
1 -93 -90 0
1 -93 -94 0
1 94 -78 0
1 -96 -78 0
1 -96 -79 0
1 -96 -60 0
